(declare-sort A)
(declare-fun f (A A) A)
(declare-fun g (A) A)
(declare-const e A)
(declare-const x A)
(declare-const y A)
(declare-const z A)

(assert
  (and
    (= (f x y) e) (= (f y x) e) (= (f x z) e) (= (f z x) e) (not (= y z))
    
    (= (f e (g e)) e) (= (f (g e) e) e) (= (f x (g x)) e) (= (f (g x) x) e)
    (= (f y (g y)) e) (= (f (g y) y) e) (= (f z (g z)) e) (= (f (g z) z) e)

    (= (f e e) e) (= (f e e) e) (= (f x e) x) (= (f e x) x)
    (= (f y e) e) (= (f e y) y) (= (f z e) z) (= (f e z) z)

    (= (f (f e e) e) (f e (f e e))) (= (f (f e e) x) (f e (f e x)))
    (= (f (f e e) y) (f e (f e y))) (= (f (f e e) z) (f e (f e z)))
    (= (f (f e x) e) (f e (f x e))) (= (f (f e x) x) (f e (f x x)))
    (= (f (f e x) y) (f e (f x y))) (= (f (f e x) z) (f e (f x z)))
    (= (f (f e y) e) (f e (f y e))) (= (f (f e y) x) (f e (f y x)))
    (= (f (f e y) y) (f e (f y y))) (= (f (f e y) z) (f e (f y z)))
    (= (f (f e z) e) (f e (f z e))) (= (f (f e z) x) (f e (f z x)))
    (= (f (f e z) y) (f e (f z y))) (= (f (f e z) z) (f e (f z z)))
    (= (f (f x e) e) (f x (f e e))) (= (f (f x e) x) (f x (f e x)))
    (= (f (f x e) y) (f x (f e y))) (= (f (f x e) z) (f x (f e z)))
    (= (f (f x x) e) (f x (f x e))) (= (f (f x x) x) (f x (f x x)))
    (= (f (f x x) y) (f x (f x y))) (= (f (f x x) z) (f x (f x z)))
    (= (f (f x y) e) (f x (f y e))) (= (f (f x y) x) (f x (f y x)))
    (= (f (f x y) y) (f x (f y y))) (= (f (f x y) z) (f x (f y z)))
    (= (f (f x z) e) (f x (f z e))) (= (f (f x z) x) (f x (f z x)))
    (= (f (f x z) y) (f x (f z y))) (= (f (f x z) z) (f x (f z z)))
    (= (f (f y e) e) (f y (f e e))) (= (f (f y e) x) (f y (f e x)))
    (= (f (f y e) y) (f y (f e y))) (= (f (f y e) z) (f y (f e z)))
    (= (f (f y x) e) (f y (f x e))) (= (f (f y x) x) (f y (f x x)))
    (= (f (f y x) y) (f y (f x y))) (= (f (f y x) z) (f y (f x z)))
    (= (f (f y y) e) (f y (f y e))) (= (f (f y y) x) (f y (f y x)))
    (= (f (f y y) y) (f y (f y y))) (= (f (f y y) z) (f y (f y z)))
    (= (f (f y z) e) (f y (f z e))) (= (f (f y z) x) (f y (f z x)))
    (= (f (f y z) y) (f y (f z y))) (= (f (f y z) z) (f y (f z z)))
    (= (f (f z e) e) (f z (f e e))) (= (f (f z e) x) (f z (f e x)))
    (= (f (f z e) y) (f z (f e y))) (= (f (f z e) z) (f z (f e z)))
    (= (f (f z x) e) (f z (f x e))) (= (f (f z x) x) (f z (f x x)))
    (= (f (f z x) y) (f z (f x y))) (= (f (f z x) z) (f z (f x z)))
    (= (f (f z y) e) (f z (f y e))) (= (f (f z y) x) (f z (f y x)))
    (= (f (f z y) y) (f z (f y y))) (= (f (f z y) z) (f z (f y z)))
    (= (f (f z z) e) (f z (f z e))) (= (f (f z z) x) (f z (f z x)))
    (= (f (f z z) y) (f z (f z y))) (= (f (f z z) z) (f z (f z z)))
  )
)
(check-sat)
